<number of tasks>
20

<cycle time>
1000

<order strength>
0,5


<task times>
1 404
2 597
3 550
4 380
5 436
6 474
7 568
8 579
9 466
10 614
11 590
12 535
13 541
14 527
15 374
16 536
17 405
18 401
19 574
20 357

<precedence relations>
2,6
3,6
3,8
3,11
3,12
4,6
4,7
4,9
5,6
5,7
6,16
7,12
8,10
9,11
10,13
10,15
11,14
11,15
12,13
12,14
13,16
13,17
14,16
14,18
16,19
16,20
17,19

<end>
